(set-info :smt-lib-version 2.6)
(set-logic QF_UFBV)
(set-info :source |
Generated by: Certora
Generated on: 2024-01-16
Generator: The Certora Prover
Application: Web3 security
|)
(set-info :license "https://creativecommons.org/licenses/by/4.0/")
(set-info :category "industrial")
(set-info :status unknown)
(declare-fun x392 ((_ BitVec 256)) (_ BitVec 256))
(declare-fun x207 () (_ BitVec 256))
(declare-fun x421 () (_ BitVec 256))
(declare-fun x374 () Bool)
(declare-fun x80 () Bool)
(declare-fun x66 () (_ BitVec 256))
(declare-fun x239 () (_ BitVec 256))
(declare-fun x410 () (_ BitVec 256))
(declare-fun x228 () Bool)
(declare-fun x108 () Bool)
(declare-fun x167 () Bool)
(declare-fun x11 () (_ BitVec 256))
(declare-fun x270 () (_ BitVec 256))
(declare-fun x22 () (_ BitVec 256))
(declare-fun x394 () (_ BitVec 256))
(declare-fun x136 () Bool)
(declare-fun x214 () (_ BitVec 256))
(declare-fun x312 () (_ BitVec 256))
(declare-fun x112 () Bool)
(declare-fun x221 () Bool)
(declare-fun x209 () (_ BitVec 256))
(declare-fun x14 ((_ BitVec 256)) (_ BitVec 256))
(declare-fun x83 ((_ BitVec 256)) (_ BitVec 256))
(declare-fun x350 () Bool)
(declare-fun x55 () (_ BitVec 256))
(declare-fun x104 () Bool)
(declare-fun x38 () Bool)
(declare-fun x163 () (_ BitVec 256))
(declare-fun x241 () Bool)
(declare-fun x344 () Bool)
(declare-fun x326 () (_ BitVec 256))
(declare-fun x5 () Bool)
(declare-fun x126 () (_ BitVec 256))
(declare-fun x123 () (_ BitVec 256))
(declare-fun x371 () Bool)
(declare-fun x274 () (_ BitVec 256))
(declare-fun x330 () (_ BitVec 256))
(declare-fun x16 () (_ BitVec 256))
(declare-fun x142 () (_ BitVec 256))
(declare-fun x197 () (_ BitVec 256))
(declare-fun x395 () (_ BitVec 256))
(declare-fun x355 () (_ BitVec 256))
(declare-fun x304 () Bool)
(declare-fun x324 () Bool)
(declare-fun x267 () Bool)
(declare-fun x156 ((_ BitVec 256)) (_ BitVec 256))
(declare-fun x273 () (_ BitVec 256))
(declare-fun x321 () (_ BitVec 256))
(declare-fun x140 () (_ BitVec 256))
(declare-fun x54 () Bool)
(declare-fun x118 () Bool)
(declare-fun x143 ((_ BitVec 256)) (_ BitVec 256))
(declare-fun x176 () (_ BitVec 256))
(declare-fun x360 () (_ BitVec 256))
(declare-fun x286 ((_ BitVec 256)) (_ BitVec 256))
(declare-fun x128 () (_ BitVec 256))
(declare-fun x399 () (_ BitVec 256))
(declare-fun x341 () Bool)
(declare-fun x420 () (_ BitVec 256))
(declare-fun x81 () Bool)
(declare-fun x409 () (_ BitVec 256))
(declare-fun x340 () (_ BitVec 256))
(declare-fun x354 () (_ BitVec 256))
(declare-fun x295 () (_ BitVec 256))
(declare-fun x153 () Bool)
(declare-fun x357 () Bool)
(declare-fun x124 () Bool)
(declare-fun x242 ((_ BitVec 256) (_ BitVec 256)) (_ BitVec 256))
(declare-fun x404 () (_ BitVec 256))
(declare-fun x34 () Bool)
(declare-fun x413 () Bool)
(declare-fun x75 () (_ BitVec 256))
(declare-fun x135 () (_ BitVec 256))
(declare-fun x223 () Bool)
(declare-fun x265 () (_ BitVec 256))
(declare-fun x401 ((_ BitVec 256) (_ BitVec 256)) (_ BitVec 256))
(declare-fun x236 () (_ BitVec 256))
(declare-fun x361 () (_ BitVec 256))
(declare-fun x224 () (_ BitVec 256))
(declare-fun x386 () Bool)
(declare-fun x336 () (_ BitVec 256))
(declare-fun x309 () (_ BitVec 256))
(declare-fun x281 () (_ BitVec 256))
(declare-fun x186 () (_ BitVec 256))
(declare-fun x42 () (_ BitVec 256))
(declare-fun x338 () (_ BitVec 256))
(declare-fun x232 () (_ BitVec 256))
(declare-fun x139 () Bool)
(declare-fun x32 () (_ BitVec 256))
(declare-fun x26 ((_ BitVec 256)) (_ BitVec 256))
(declare-fun x235 () Bool)
(declare-fun x27 () (_ BitVec 256))
(declare-fun x219 () (_ BitVec 256))
(declare-fun x379 ((_ BitVec 256)) (_ BitVec 256))
(declare-fun x252 () (_ BitVec 256))
(declare-fun x424 () (_ BitVec 256))
(declare-fun x159 () Bool)
(declare-fun x87 () (_ BitVec 256))
(declare-fun x73 () (_ BitVec 256))
(declare-fun x332 () Bool)
(declare-fun x373 () Bool)
(declare-fun x144 () Bool)
(declare-fun x125 ((_ BitVec 256)) (_ BitVec 256))
(declare-fun x60 () (_ BitVec 256))
(declare-fun x208 () (_ BitVec 256))
(declare-fun x74 () (_ BitVec 256))
(declare-fun x384 () Bool)
(declare-fun x194 () (_ BitVec 256))
(declare-fun x205 () Bool)
(declare-fun x166 () (_ BitVec 256))
(declare-fun x36 () (_ BitVec 256))
(declare-fun x403 () (_ BitVec 256))
(declare-fun x257 () (_ BitVec 256))
(declare-fun x155 () Bool)
(declare-fun x300 () (_ BitVec 256))
(declare-fun x37 ((_ BitVec 256)) (_ BitVec 256))
(declare-fun x333 ((_ BitVec 256)) (_ BitVec 256))
(declare-fun x258 () Bool)
(declare-fun x191 () Bool)
(declare-fun x132 ((_ BitVec 256)) (_ BitVec 256))
(declare-fun x362 () (_ BitVec 256))
(declare-fun x120 () Bool)
(declare-fun x175 () (_ BitVec 256))
(declare-fun x133 () (_ BitVec 256))
(declare-fun x145 () (_ BitVec 256))
(declare-fun x335 () (_ BitVec 256))
(declare-fun x313 () (_ BitVec 256))
(declare-fun x306 () (_ BitVec 256))
(declare-fun x203 () Bool)
(declare-fun x414 () (_ BitVec 256))
(declare-fun x179 () Bool)
(declare-fun x372 () Bool)
(declare-fun x349 () (_ BitVec 256))
(declare-fun x327 () (_ BitVec 256))
(declare-fun x419 () (_ BitVec 256))
(declare-fun x65 () (_ BitVec 256))
(declare-fun x76 () (_ BitVec 256))
(declare-fun x97 () (_ BitVec 256))
(declare-fun x347 () Bool)
(declare-fun x261 () Bool)
(declare-fun x422 () (_ BitVec 256))
(declare-fun x94 () (_ BitVec 256))
(declare-fun x181 () Bool)
(declare-fun x103 ((_ BitVec 256)) (_ BitVec 256))
(declare-fun x152 () (_ BitVec 256))
(declare-fun x95 () (_ BitVec 256))
(declare-fun x317 () (_ BitVec 256))
(declare-fun x253 () Bool)
(declare-fun x245 () (_ BitVec 256))
(declare-fun x96 ((_ BitVec 256)) (_ BitVec 256))
(declare-fun x301 () (_ BitVec 256))
(declare-fun x48 () Bool)
(declare-fun x318 () Bool)
(declare-fun x146 () Bool)
(declare-fun x121 () (_ BitVec 256))
(declare-fun x319 () Bool)
(declare-fun x68 () (_ BitVec 256))
(declare-fun x302 () (_ BitVec 256))
(declare-fun x88 () (_ BitVec 256))
(declare-fun x363 () (_ BitVec 256))
(declare-fun x173 () Bool)
(declare-fun x58 () (_ BitVec 256))
(declare-fun x218 () Bool)
(declare-fun x366 () Bool)
(declare-fun x311 () Bool)
(declare-fun x2 () (_ BitVec 256))
(declare-fun x368 () (_ BitVec 256))
(declare-fun x210 ((_ BitVec 256)) (_ BitVec 256))
(declare-fun x40 () (_ BitVec 256))
(declare-fun x308 ((_ BitVec 256)) (_ BitVec 256))
(declare-fun x376 () Bool)
(declare-fun x160 () (_ BitVec 256))
(declare-fun x246 () Bool)
(declare-fun x346 () Bool)
(declare-fun x359 ((_ BitVec 256) (_ BitVec 256)) (_ BitVec 256))
(declare-fun x29 () (_ BitVec 256))
(declare-fun x168 () (_ BitVec 256))
(declare-fun x204 () Bool)
(declare-fun x352 () (_ BitVec 256))
(declare-fun x391 () Bool)
(declare-fun x138 () (_ BitVec 256))
(declare-fun x20 () (_ BitVec 256))
(declare-fun x280 () (_ BitVec 256))
(declare-fun x110 () Bool)
(declare-fun x113 () (_ BitVec 256))
(declare-fun x8 () Bool)
(declare-fun x161 () (_ BitVec 256))
(declare-fun x351 () (_ BitVec 256))
(declare-fun x101 () Bool)
(declare-fun x63 () (_ BitVec 256))
(declare-fun x266 () Bool)
(declare-fun x307 () Bool)
(declare-fun x98 () (_ BitVec 256))
(declare-fun x339 () Bool)
(declare-fun x102 () (_ BitVec 256))
(declare-fun x238 () (_ BitVec 256))
(declare-fun x107 () (_ BitVec 256))
(declare-fun x21 () (_ BitVec 256))
(declare-fun x240 () (_ BitVec 256))
(declare-fun x378 () (_ BitVec 256))
(declare-fun x364 () (_ BitVec 256))
(declare-fun x418 () Bool)
(declare-fun x231 () (_ BitVec 256))
(declare-fun x259 () Bool)
(declare-fun x206 () (_ BitVec 256))
(declare-fun x390 () Bool)
(declare-fun x407 () (_ BitVec 256))
(declare-fun x381 () Bool)
(declare-fun x18 () (_ BitVec 256))
(declare-fun x343 ((_ BitVec 256)) (_ BitVec 256))
(declare-fun x111 () Bool)
(declare-fun x212 () (_ BitVec 256))
(declare-fun x249 () (_ BitVec 256))
(declare-fun x264 () (_ BitVec 256))
(declare-fun x52 () (_ BitVec 256))
(declare-fun x365 () Bool)
(declare-fun x296 () (_ BitVec 256))
(declare-fun x85 () (_ BitVec 256))
(declare-fun x148 () (_ BitVec 256))
(declare-fun x282 () (_ BitVec 256))
(declare-fun x233 () Bool)
(declare-fun x130 () Bool)
(declare-fun x198 () (_ BitVec 256))
(declare-fun x345 ((_ BitVec 256)) (_ BitVec 256))
(declare-fun x329 () (_ BitVec 256))
(declare-fun x406 () Bool)
(declare-fun x64 () Bool)
(declare-fun x285 () (_ BitVec 256))
(declare-fun x61 () (_ BitVec 256))
(declare-fun x84 () (_ BitVec 256))
(declare-fun x134 () (_ BitVec 256))
(declare-fun x151 () (_ BitVec 256))
(declare-fun x279 () (_ BitVec 256))
(declare-fun x277 () (_ BitVec 256))
(declare-fun x10 () (_ BitVec 256))
(declare-fun x294 () (_ BitVec 256))
(declare-fun x183 () (_ BitVec 256))
(declare-fun x177 ((_ BitVec 256) (_ BitVec 256)) (_ BitVec 256))
(declare-fun x217 () (_ BitVec 256))
(declare-fun x262 () (_ BitVec 256))
(declare-fun x256 () Bool)
(declare-fun x417 () (_ BitVec 256))
(declare-fun x137 () (_ BitVec 256))
(declare-fun x234 () (_ BitVec 256))
(declare-fun x405 () (_ BitVec 256))
(declare-fun x188 () Bool)
(declare-fun x251 ((_ BitVec 256)) (_ BitVec 256))
(declare-fun x122 () Bool)
(declare-fun x67 () (_ BitVec 256))
(declare-fun x243 () (_ BitVec 256))
(declare-fun x93 () (_ BitVec 256))
(declare-fun x182 () (_ BitVec 256))
(declare-fun x6 ((_ BitVec 256)) (_ BitVec 256))
(declare-fun x91 () (_ BitVec 256))
(declare-fun x184 () Bool)
(declare-fun x129 () Bool)
(declare-fun x415 () (_ BitVec 256))
(declare-fun x59 () Bool)
(declare-fun x79 () (_ BitVec 256))
(declare-fun x293 () (_ BitVec 256))
(declare-fun x41 () (_ BitVec 256))
(declare-fun x86 () (_ BitVec 256))
(declare-fun x254 () (_ BitVec 256))
(declare-fun x50 () Bool)
(declare-fun x215 () Bool)
(declare-fun x211 () (_ BitVec 256))
(declare-fun x222 () (_ BitVec 256))
(declare-fun x185 ((_ BitVec 256)) (_ BitVec 256))
(declare-fun x45 () (_ BitVec 256))
(declare-fun x331 ((_ BitVec 256)) (_ BitVec 256))
(declare-fun x383 () (_ BitVec 256))
(declare-fun x348 () (_ BitVec 256))
(declare-fun x47 () (_ BitVec 256))
(declare-fun x49 ((_ BitVec 256) (_ BitVec 256) (_ BitVec 256)) (_ BitVec 256))
(declare-fun x71 () (_ BitVec 256))
(declare-fun x92 () (_ BitVec 256))
(declare-fun x314 () (_ BitVec 256))
(declare-fun x305 () (_ BitVec 256))
(declare-fun x356 () Bool)
(declare-fun x69 () (_ BitVec 256))
(declare-fun x367 () (_ BitVec 256))
(declare-fun x172 () (_ BitVec 256))
(declare-fun x178 () Bool)
(declare-fun x89 () Bool)
(declare-fun x276 () Bool)
(declare-fun x57 () (_ BitVec 256))
(declare-fun x278 ((_ BitVec 256)) (_ BitVec 256))
(declare-fun x290 () (_ BitVec 256))
(declare-fun x35 () (_ BitVec 256))
(declare-fun x322 () (_ BitVec 256))
(declare-fun x292 () (_ BitVec 256))
(declare-fun x192 () (_ BitVec 256))
(declare-fun x416 () (_ BitVec 256))
(declare-fun x226 () (_ BitVec 256))
(declare-fun x164 () Bool)
(declare-fun x389 () (_ BitVec 256))
(declare-fun x328 () (_ BitVec 256))
(declare-fun x260 () (_ BitVec 256))
(declare-fun x28 () Bool)
(declare-fun x56 () (_ BitVec 256))
(declare-fun x408 () (_ BitVec 256))
(declare-fun x220 () (_ BitVec 256))
(declare-fun x24 () (_ BitVec 256))
(declare-fun x216 () (_ BitVec 256))
(declare-fun x190 ((_ BitVec 256)) Bool)
(declare-fun x31 () (_ BitVec 256))
(declare-fun x397 () (_ BitVec 256))
(declare-fun x375 () (_ BitVec 256))
(declare-fun x51 () (_ BitVec 256))
(declare-fun x196 () (_ BitVec 256))
(declare-fun x303 () Bool)
(declare-fun x250 () (_ BitVec 256))
(declare-fun x229 ((_ BitVec 256)) (_ BitVec 256))
(declare-fun x247 () Bool)
(declare-fun x337 () (_ BitVec 256))
(declare-fun x187 () Bool)
(declare-fun x171 () (_ BitVec 256))
(declare-fun x165 () Bool)
(declare-fun x117 () (_ BitVec 256))
(declare-fun x411 () (_ BitVec 256))
(declare-fun x358 () (_ BitVec 256))
(declare-fun x195 () (_ BitVec 256))
(declare-fun x323 () (_ BitVec 256))
(declare-fun x82 () (_ BitVec 256))
(declare-fun x72 () Bool)
(declare-fun x30 () (_ BitVec 256))
(declare-fun x106 () (_ BitVec 256))
(declare-fun x17 () (_ BitVec 256))
(define-fun x291 ((x380 (_ BitVec 256)) (x334 (_ BitVec 256))) Bool (= x380 (bvudiv (bvmul x334 x380) x334)))
(define-fun x398 ((x380 (_ BitVec 256)) (x334 (_ BitVec 256))) Bool (= x380 (bvsdiv (bvmul x380 x334) x334)))
(define-fun x315 ((x380 (_ BitVec 256)) (x334 (_ BitVec 256))) Bool (= x380 (bvsdiv (bvmul x334 x380) x334)))
(define-fun x174 ((x116 (_ BitVec 256))) (_ BitVec 256) (_ bv0 256))
(define-fun x230 ((x116 (_ BitVec 256))) (_ BitVec 256) (_ bv0 256))
(define-fun x127 ((x116 (_ BitVec 256))) (_ BitVec 256) (_ bv0 256))
(define-fun x325 ((x116 (_ BitVec 256))) (_ BitVec 256) (_ bv0 256))
(define-fun x13 ((x116 (_ BitVec 256))) (_ BitVec 256) (_ bv0 256))
(define-fun x423 ((x116 (_ BitVec 256))) (_ BitVec 256) (_ bv0 256))
(define-fun x169 ((x116 (_ BitVec 256))) (_ BitVec 256) (_ bv0 256))
(define-fun x385 ((x116 (_ BitVec 256))) (_ BitVec 256) (_ bv0 256))
(define-fun x225 ((x116 (_ BitVec 256))) (_ BitVec 256) (_ bv0 256))
(define-fun x131 ((x116 (_ BitVec 256))) (_ BitVec 256) (_ bv0 256))
(define-fun x289 ((x116 (_ BitVec 256))) (_ BitVec 256) (_ bv0 256))
(define-fun x272 ((x116 (_ BitVec 256))) (_ BitVec 256) (_ bv0 256))
(define-fun x299 ((x116 (_ BitVec 256))) (_ BitVec 256) (_ bv0 256))
(define-fun x298 ((x116 (_ BitVec 256))) (_ BitVec 256) (_ bv0 256))
(define-fun x310 ((x116 (_ BitVec 256))) (_ BitVec 256) (_ bv0 256))
(define-fun x150 ((x116 (_ BitVec 256))) (_ BitVec 256) (_ bv0 256))
(define-fun x189 ((x116 (_ BitVec 256))) (_ BitVec 256) (_ bv0 256))
(define-fun x387 ((x116 (_ BitVec 256))) (_ BitVec 256) (ite (= x116 x67) x211 (x83 x116)))
(define-fun x283 ((x116 (_ BitVec 256))) (_ BitVec 256) (ite (= x116 x352) x314 (x387 x116)))
(define-fun x287 ((x116 (_ BitVec 256))) (_ BitVec 256) (ite (= x116 (_ bv512 256)) (_ bv50942633119752846454219349998365661925608737367104304655302372697894809501696 256) (x174 x116)))
(define-fun x114 ((x116 (_ BitVec 256))) (_ BitVec 256) (ite (= x116 (_ bv516 256)) x352 (x287 x116)))
(define-fun x369 ((x116 (_ BitVec 256))) (_ BitVec 256) (ite (= x116 (_ bv0 256)) x358 (x156 x116)))
(define-fun x105 ((x116 (_ BitVec 256))) (_ BitVec 256) (ite (= (_ bv512 256) x116) x358 (x114 x116)))
(define-fun x149 ((x116 (_ BitVec 256))) (_ BitVec 256) (ite (= x116 (_ bv512 256)) (_ bv9926590759366731133184464140911154174177107315504433282334229972011911741440 256) (x105 x116)))
(define-fun x199 ((x116 (_ BitVec 256))) (_ BitVec 256) (ite (= (_ bv516 256) x116) x66 (x149 x116)))
(define-fun x248 ((x116 (_ BitVec 256))) (_ BitVec 256) (ite (= x116 (_ bv548 256)) x240 (x199 x116)))
(define-fun x412 ((x116 (_ BitVec 256))) (_ BitVec 256) (ite (= x116 (_ bv580 256)) x249 (x248 x116)))
(define-fun x202 ((x116 (_ BitVec 256))) (_ BitVec 256) (ite (and (bvult x116 (_ bv544 256)) (bvuge x116 (_ bv512 256))) (x333 (bvadd x116 (bvneg (_ bv512 256)))) (x412 x116)))
(define-fun x170 ((x116 (_ BitVec 256))) (_ BitVec 256) (ite x203 (x202 x116) (x412 x116)))
(define-fun x284 ((x116 (_ BitVec 256))) (_ BitVec 256) (ite (= (_ bv768 256) x116) x416 (x170 x116)))
(define-fun x193 ((x116 (_ BitVec 256))) (_ BitVec 256) (ite (= x116 (_ bv800 256)) x73 (x284 x116)))
(define-fun x227 ((x116 (_ BitVec 256))) (_ BitVec 256) (ite (= (_ bv832 256) x116) x220 (x193 x116)))
(define-fun x370 ((x116 (_ BitVec 256))) (_ BitVec 256) (ite (= x116 (_ bv864 256)) x66 (x227 x116)))
(define-fun x43 ((x116 (_ BitVec 256))) (_ BitVec 256) (ite (= x116 (_ bv896 256)) x84 (x370 x116)))
(define-fun x109 ((x116 (_ BitVec 256))) (_ BitVec 256) (ite (= (_ bv928 256) x116) x285 (x43 x116)))
(define-fun x1 ((x116 (_ BitVec 256))) (_ BitVec 256) (ite x356 (x174 x116) (x109 x116)))
(define-fun x382 ((x116 (_ BitVec 256))) (_ BitVec 256) (ite (= x116 x312) (_ bv94660871419866510410585227081998418825812370529644017213781834938921611427840 256) (x1 x116)))
(define-fun x396 ((x116 (_ BitVec 256))) (_ BitVec 256) (ite (and (bvuge x116 x312) (bvugt (bvadd x312 (_ bv32 256)) x116)) (x37 (bvadd x116 (bvneg x312))) (x382 x116)))
(define-fun x342 ((x116 (_ BitVec 256))) (_ BitVec 256) (ite (= x116 x312) (_ bv2753650939057965666225178440496912379326048102944658291012724394764470845440 256) (x396 x116)))
(define-fun x393 ((x116 (_ BitVec 256))) (_ BitVec 256) (ite (= x20 x116) x352 (x342 x116)))
(define-fun x263 ((x116 (_ BitVec 256))) (_ BitVec 256) (ite (= x260 x116) x234 (x393 x116)))
(define-fun x316 ((x116 (_ BitVec 256))) (_ BitVec 256) (ite (= x116 x282) x47 (x263 x116)))
(define-fun x297 ((x116 (_ BitVec 256))) (_ BitVec 256) (ite (= x116 x30) x394 (x316 x116)))
(define-fun x244 ((x116 (_ BitVec 256))) (_ BitVec 256) (ite (= x198 x116) x128 (x297 x116)))
(define-fun x180 ((x116 (_ BitVec 256))) (_ BitVec 256) (ite (and (bvugt x312 x116) (bvule x312 x116)) (x185 (bvadd (bvneg x312) x116)) (x244 x116)))
(define-fun x100 ((x116 (_ BitVec 256))) (_ BitVec 256) (ite (= x312 x116) (_ bv54839132643598794703230737955280539531164974940778555563538292604325798608896 256) (x180 x116)))
(define-fun x147 ((x116 (_ BitVec 256))) (_ BitVec 256) (ite (and (bvugt (bvadd (_ bv32 256) x312) x116) (bvule x312 x116)) (x210 (bvadd (bvneg x312) x116)) (x100 x116)))
(define-fun x23 ((x116 (_ BitVec 256))) (_ BitVec 256) (ite x80 (x147 x116) (x100 x116)))
(define-fun x162 ((x116 (_ BitVec 256))) (_ BitVec 256) (ite (= x312 x116) (_ bv10049708693891714625633490409375016547535144715664560469602540866729785950208 256) (x23 x116)))
(define-fun x115 ((x116 (_ BitVec 256))) (_ BitVec 256) (ite (= x116 x92) x352 (x162 x116)))
(define-fun x9 ((x116 (_ BitVec 256))) (_ BitVec 256) (ite (= x116 x301) x47 (x115 x116)))
(define-fun x70 ((x116 (_ BitVec 256))) (_ BitVec 256) (ite (= x116 x321) x394 (x9 x116)))
(define-fun x353 ((x116 (_ BitVec 256))) (_ BitVec 256) (ite (= x207 x116) x128 (x70 x116)))
(define-fun x400 ((x116 (_ BitVec 256))) (_ BitVec 256) (ite (and (bvugt x312 x116) (bvule x312 x116)) (x278 (bvadd x116 (bvneg x312))) (x353 x116)))
(define-fun x271 ((x116 (_ BitVec 256))) (_ BitVec 256) (ite (= x216 x116) (_ bv50942633119752846454219349998365661925608737367104304655302372697894809501696 256) (x400 x116)))
(define-fun x77 ((x116 (_ BitVec 256))) (_ BitVec 256) (ite (= x250 x116) x352 (x271 x116)))
(define-fun x33 ((x116 (_ BitVec 256))) (_ BitVec 256) (ite (= (_ bv0 256) x116) x327 (x229 x116)))
(define-fun x12 ((x116 (_ BitVec 256))) (_ BitVec 256) (ite (= x378 x116) x47 (x230 x116)))
(define-fun x44 ((x116 (_ BitVec 256))) (_ BitVec 256) (ite (= x116 x264) x352 (x12 x116)))
(define-fun x255 ((x116 (_ BitVec 256))) (_ BitVec 256) (ite (= x209 x116) x29 (x44 x116)))
(define-fun x200 ((x116 (_ BitVec 256))) (_ BitVec 256) (ite (= x216 x116) x330 (x127 x116)))
(define-fun x62 ((x116 (_ BitVec 256))) (_ BitVec 256) (ite (= x116 x91) x222 (x255 x116)))
(define-fun x25 ((x32 (_ BitVec 256))) Bool (or (= (bvadd x32 (_ bv1 256)) (x125 (x132 x32))) (not (and (bvuge x32 (_ bv0 256)) (bvule x32 (_ bv115792089237316195423570985008687907853269984665640564039457584007913129639935 256)))) (not (and (bvugt x206 x32) (bvule (_ bv0 256) x32)))))
(define-fun x90 ((x361 (_ BitVec 256))) Bool (or (not (and (bvule x361 (_ bv115792089237316195423570985008687907853269984665640564039457584007913129639935 256)) (bvuge x361 (_ bv0 256)))) (and (and (= (x132 (bvadd (bvneg (_ bv1 256)) (x125 x361))) x361) (bvuge (x125 x361) (_ bv1 256))) (bvuge x206 (x125 x361))) (= (x125 x361) (_ bv0 256))))
(define-fun x78 ((x40 (_ BitVec 256)) (x16 (_ BitVec 256))) Bool (or (not (and (bvuge x40 (_ bv0 256)) (bvuge (_ bv1461501637330902918203684832716283019655932542975 256) x40))) (or (not (and (bvule x16 (_ bv115792089237316195423570985008687907853269984665640564039457584007913129639935 256)) (bvule (_ bv0 256) x16))) (= (x359 x40 (x401 x40 x16)) (bvadd (_ bv1 256) x16)) (not (and (bvule (_ bv0 256) x16) (bvult x16 (x14 x40)))))))
(define-fun x46 ((x329 (_ BitVec 256)) (x411 (_ BitVec 256))) Bool (or (or (not (and (bvule (_ bv0 256) x411) (bvuge (_ bv115792089237316195423570985008687907853269984665640564039457584007913129639935 256) x411))) (= (x359 x329 x411) (_ bv0 256)) (and (bvuge (x14 x329) (x359 x329 x411)) (and (= x411 (x401 x329 (bvadd (bvneg (_ bv1 256)) (x359 x329 x411)))) (bvuge (x359 x329 x411) (_ bv1 256))))) (not (and (bvuge (_ bv1461501637330902918203684832716283019655932542975 256) x329) (bvule (_ bv0 256) x329)))))
(define-fun x320 ((x134 (_ BitVec 256)) (x42 (_ BitVec 256))) Bool (or (not (and (bvule (_ bv0 256) x134) (bvule x134 (_ bv1461501637330902918203684832716283019655932542975 256)))) (or (= (bvadd (_ bv1 256) x42) (x177 x134 (x242 x134 x42))) (not (and (bvult x42 (x345 x134)) (bvuge x42 (_ bv0 256)))) (not (and (bvuge x42 (_ bv0 256)) (bvuge (_ bv115792089237316195423570985008687907853269984665640564039457584007913129639935 256) x42))))))
(define-fun x119 ((x41 (_ BitVec 256)) (x2 (_ BitVec 256))) Bool (or (or (not (and (bvuge x2 (_ bv0 256)) (bvuge (_ bv115792089237316195423570985008687907853269984665640564039457584007913129639935 256) x2))) (and (bvule (x177 x41 x2) (x345 x41)) (and (= x2 (x242 x41 (bvadd (bvneg (_ bv1 256)) (x177 x41 x2)))) (bvule (_ bv1 256) (x177 x41 x2)))) (= (x177 x41 x2) (_ bv0 256))) (not (and (bvuge x41 (_ bv0 256)) (bvuge (_ bv1461501637330902918203684832716283019655932542975 256) x41)))))
(define-fun x288 ((x102 (_ BitVec 256)) (x133 (_ BitVec 256))) Bool (or (not (and (bvule x102 (_ bv1461501637330902918203684832716283019655932542975 256)) (bvuge x102 (_ bv0 256)))) (or (not (= (x125 x133) (_ bv0 256))) (not (and (bvuge x133 (_ bv0 256)) (bvule x133 (_ bv115792089237316195423570985008687907853269984665640564039457584007913129639935 256)))) (not (or (not (= (_ bv0 256) (x359 x102 x133))) (not (= (x177 x102 x133) (_ bv0 256))))))))
(define-fun x275 ((x214 (_ BitVec 256))) Bool (or (not (and (bvule (_ bv0 256) x214) (bvule x214 (_ bv1461501637330902918203684832716283019655932542975 256)))) (bvugt (_ bv340282366920938463463374607431768211455 256) (x14 x214))))
(define-fun x39 ((x375 (_ BitVec 256))) Bool (or (not (and (bvuge (_ bv1461501637330902918203684832716283019655932542975 256) x375) (bvuge x375 (_ bv0 256)))) (bvugt (_ bv340282366920938463463374607431768211455 256) (x345 x375))))
(define-fun x157 () Bool true)
(define-fun x237 () Bool x157)
(define-fun x7 () Bool true)
(define-fun x141 () Bool x7)
(define-fun x269 () Bool true)
(define-fun x377 () Bool x269)
(define-fun x19 () Bool true)
(define-fun x201 () Bool x19)
(define-fun x99 () Bool true)
(define-fun x15 () Bool x99)
(define-fun x213 () Bool true)
(define-fun x268 () Bool x213)
(define-fun x53 () Bool true)
(define-fun x154 () Bool true)
(define-fun x4 () Bool (and x154 x53))
(define-fun x388 () Bool true)
(define-fun x402 () Bool x388)
(define-fun x158 () Bool true)
(define-fun x3 () Bool x158)
(assert (=> (bvuge (_ bv10000 256) x98) (= (_ bv0 256) (x331 x98))))
(assert (bvult x95 (_ bv340282366920938463463374607431768211455 256)))
(assert (=> (bvule x24 (_ bv10000 256)) (= (_ bv0 256) (x331 x24))))
(assert (=> (bvuge (_ bv10000 256) x148) (= (x331 x148) (_ bv0 256))))
(assert (=> (bvule x422 (_ bv10000 256)) (= (x331 x422) (_ bv0 256))))
(assert (x190 (_ bv9926590759366731133184464140911154174177107315504433282334229972011911741440 256)))
(assert (= (and (not x324) x384) x54))
(assert (= x104 (and x253 (not x311))))
(assert (x190 (_ bv340282366920938463463374607431768211455 256)))
(assert (= x130 (and x307 x72)))
(assert (= (_ bv0 256) (x331 (_ bv2753650939057965666225178440496912379326048102944658291012724394764470845440 256))))
(assert (= (or x48 x356) x376))
(assert (= (_ bv0 256) (x331 (_ bv50942633119752846454219349998365661925608737367104304655302372697894809501696 256))))
(assert (= (_ bv0 256) (x331 (_ bv57896044618658097711785492504343953926634992332820282019728792003956564819967 256))))
(assert (x190 (_ bv1000000000000000000 256)))
(assert (= (x331 (_ bv54839132643598794703230737955280539531164974940778555563538292604325798608896 256)) (_ bv0 256)))
(assert (= (x331 (_ bv1000000000000000 256)) (_ bv0 256)))
(assert (= (and (not x164) x258) x34))
(assert (= (and x258 x164) x365))
(assert (= x80 (and x346 x376)))
(assert (=> (bvule x183 (_ bv10000 256)) (= (x331 x183) (_ bv0 256))))
(assert (x190 (_ bv57896044618658097711785492504343953926634992332820282019728792003956564819967 256)))
(assert (bvult x206 (_ bv340282366920938463463374607431768211455 256)))
(assert (= (_ bv0 256) (x331 (_ bv1889567281 256))))
(assert (= (x286 (x49 (_ bv64 256) x394 (_ bv169 256))) x394))
(assert (= (and (=> (and (and (and (= (x251 x403) x171) (bvule (_ bv1 256) x171) (= (x26 x79) x152) (= x205 (= x152 (_ bv0 256))) (= x403 (bvadd x79 (_ bv1 256)))) (or (and (and (= x239 (bvmul x152 x302)) (= x88 x239) (x291 x152 x302)) (not x205)) (and x205 (= (_ bv0 256) x88)))) (not x267)) x276) (=> (and (and (= x216 x312) (= x113 (_ bv0 256))) x267) x259)) x159))
(assert (x190 (_ bv16156842317565293874272834530371880720966471053262404558597773956279093428224 256)))
(assert (= x48 (or x418 x247)))
(assert (x190 (_ bv115792089237316195423570985008687907853269984665640564039457584007913129639935 256)))
(assert (x190 (_ bv10049708693891714625633490409375016547535144715664560469602540866729785950208 256)))
(assert (= x418 (and x155 (not x371))))
(assert (= x241 (=> (and (or (and (= x137 (_ bv0 256)) x371) (and (not x371) (and (= (bvmul x10 x296) x117) (= x137 x117) (x291 x10 x296)))) (and (not (bvult (bvadd x337 x249) x337)) (= x371 (= (_ bv0 256) x10)) (= (_ bv640 256) x76) (= (_ bv1000000000000000000 256) x52) (= x337 (bvudiv x82 (_ bv1000000000000000000 256))) (= x285 (bvadd x249 x337)))) x59)))
(assert (= (x49 (_ bv64 256) x352 (_ bv103 256)) (x331 (x49 (_ bv64 256) x352 (_ bv103 256)))))
(assert (=> (bvule x67 (_ bv10000 256)) (= (_ bv0 256) (x331 x67))))
(assert (= (and x307 (not x72)) x173))
(assert (= (=> (and (= x107 (_ bv36 256)) (= x29 (ite (bvugt x128 x113) x113 x128)) (= x264 (bvadd (_ bv32 256) x378)) (= x378 (bvadd x216 (_ bv36 256))) (= x56 (bvadd (bvneg x216) x408)) (bvule x422 (_ bv1461501637330902918203684832716283019655932542975 256)) (= (bvadd x407 (_ bv16156842317565293874272834530371880720966471053262404558597773956279093428224 256)) x222) (= (_ bv0 256) x395) (= x68 (x200 x216)) (= (_ bv36 256) x399) (= (bvadd (_ bv32 256) x216) x91) (= (bvadd (_ bv32 256) x209) x408) (= x327 (x392 x254)) (bvule (_ bv1 256) x196) (bvuge x208 (_ bv1 256)) (= (x6 x422) x192) (bvuge x68 (_ bv128 256)) (= x142 (bvadd (_ bv32 256) x250)) (= (_ bv1889567281 256) x168) (= (x6 x352) x208) (= (x6 x422) x196) (= x389 x97) (= x389 x352) (= (x49 (_ bv64 256) x352 (_ bv103 256)) x254) (= x60 (x255 x91)) (= x407 (bvand x60 (_ bv26959946667150639794667015087019630673637144422540572481103610249215 256))) (bvuge x422 (_ bv1 256)) (= (bvult (bvadd (bvneg (_ bv128 256)) x68) (_ bv32 256)) x246) (= x209 (bvadd (_ bv32 256) x264)) (= x399 (bvadd (bvneg x216) x142)) (= (_ bv50942633119752846454219349998365661925608737367104304655302372697894809501696 256) x292) (= x352 x422) (bvule (_ bv1 256) x192) (= x330 (bvadd x56 (bvneg (_ bv32 256)))) (= x250 (bvadd x216 (_ bv4 256))) (= true x101)) x246) x259))
(assert (= (_ bv0 256) (x331 (_ bv115792089237316195423570985008687907853269984665640564039457584007913129639935 256))))
(assert (= (_ bv0 256) (x331 (_ bv16156842317565293874272834530371880720966471053262404558597773956279093428224 256))))
(assert (= (x331 (_ bv340282366920938463463374607431768211455 256)) (_ bv0 256)))
(assert (=> (bvule x394 (_ bv10000 256)) (= (x331 x394) (_ bv0 256))))
(assert (=> (bvuge (_ bv10000 256) x352) (= (x331 x352) (_ bv0 256))))
(assert (not (x190 (x49 (_ bv64 256) x352 (_ bv103 256)))))
(assert (= x347 (or x165 x366)))
(assert (= x307 (or x235 x203)))
(assert (= (and x376 (not x346)) x191))
(assert (=> (bvule x106 (_ bv10000 256)) (= (_ bv0 256) (x331 x106))))
(assert (=> (bvule x295 (_ bv10000 256)) (= (x331 x295) (_ bv0 256))))
(assert (= x155 (or x104 x339)))
(assert (=> (bvuge (_ bv10000 256) x277) (= (x331 x277) (_ bv0 256))))
(assert (=> (bvuge (_ bv10000 256) x328) (= (_ bv0 256) (x331 x328))))
(assert (not (x190 (x49 (_ bv64 256) x394 (_ bv169 256)))))
(assert (= x203 (and x111 x386)))
(assert (= (_ bv0 256) (x331 (_ bv10049708693891714625633490409375016547535144715664560469602540866729785950208 256))))
(assert (= x59 (=> (and (= x51 x364) (= x220 (bvadd x296 x336)) (= x336 (bvudiv x137 (_ bv1000000000000000000 256))) (= x273 (bvadd x336 x296)) (not (bvult (bvadd x296 x336) x336)) (= x312 (_ bv768 256)) (= x279 (_ bv704 256)) (= x302 x273)) x8)))
(assert (= (and x324 x384) x256))
(assert (= (and x118 (not x184)) x111))
(assert (= (and (not x267) x374) x357))
(assert (x190 (_ bv4125344866 256)))
(assert (= (x96 (x49 (_ bv64 256) x352 (_ bv103 256))) (_ bv103 256)))
(assert (x190 (_ bv2753650939057965666225178440496912379326048102944658291012724394764470845440 256)))
(assert (= (or x80 x191) x258))
(assert (= (and (not x386) x111) x235))
(assert (= (_ bv64 256) (x343 (x49 (_ bv64 256) x352 (_ bv103 256)))))
(assert (bvult (_ bv10000 256) (x49 (_ bv64 256) x394 (_ bv169 256))))
(assert (= (and x374 x267) x165))
(assert (= x167 (=> (and (or (and (not x164) (and (= (bvadd x79 (_ bv1 256)) x322) (= x267 (= x367 (_ bv0 256))) (= x367 (x251 x322)))) (and x164 (= x267 x164))) (and (= x204 (bvuge (x103 x352) x414)) (= x92 (bvadd (_ bv4 256) x312)) (= (= (x103 x148) x348) x64) (bvuge x138 (_ bv1 256)) (bvule (_ bv1 256) x176) (= (bvadd (_ bv32 256) x301) x321) (= x414 (x143 x352)) (bvule x368 (_ bv4294967295 256)) (bvuge x219 (_ bv1 256)) x64 (= (x49 (_ bv64 256) x394 (_ bv169 256)) x79) (= x219 (x6 x148)) (= x207 (bvadd x321 (_ bv32 256))) (= (bvadd x92 (_ bv32 256)) x301) (= x335 (x26 x79)) (= x348 (x143 x148)) (= (x23 x312) x166) x204 (= x166 x416) (= (= (_ bv0 256) x335) x164))) x159)))
(assert (= x89 (and x357 (not x205))))
(assert (= x339 (and x253 x311)))
(assert (= (_ bv0 256) (x331 (_ bv4294967295 256))))
(assert x402)
(assert (= (x331 (_ bv1461501637330902918203684832716283019655932542975 256)) (_ bv0 256)))
(assert (= x356 (and x118 x184)))
(assert (x190 (_ bv1889567281 256)))
(assert (x190 (_ bv50942633119752846454219349998365661925608737367104304655302372697894809501696 256)))
(assert (= (and x371 x155) x247))
(assert (= (x331 (_ bv4125344866 256)) (_ bv0 256)))
(assert (not x228))
(assert (= x374 (or x34 x365)))
(assert (= (x331 x79) (x331 (bvadd (_ bv1 256) x79))))
(assert (= (_ bv64 256) (x343 (x49 (_ bv64 256) x394 (_ bv169 256)))))
(assert (= x153 (=> (and (or (and (and (x291 x10 x240) (= x354 x274) (= (bvmul x10 x240) x354)) (not x324)) (and x324 (= (_ bv0 256) x274))) (and (= x324 (= x10 (_ bv0 256))) (= x161 (_ bv1000000000000000000 256)))) x223)))
(assert (= (x331 (_ bv1000000000000000000 256)) (_ bv0 256)))
(assert (= x366 (or x89 x303)))
(assert (= (=> (and (= x113 x94) (= x216 x362) (= (bvudiv x420 x171) x94) (= (bvadd (_ bv64 256) x65) x362) (not (bvult (bvadd x88 x87) x88)) (= (_ bv1 256) x351) (= x65 (bvadd (_ bv64 256) x312)) (= x420 (bvadd x88 x87)) (= x87 (bvadd x171 (bvneg (_ bv1 256))))) x259) x276))
(assert (= x303 (and x205 x357)))
(assert (= (or x173 x130) x384))
(assert (= x223 (=> (and (or (and x311 (= x82 (_ bv0 256))) (and (not x311) (and (= (bvmul x73 x63) x71) (= x82 x71) (x291 x63 x73)))) (and (= (bvadd x73 x240) x84) (= x73 (bvudiv x274 (_ bv1000000000000000000 256))) (= x311 (= (_ bv0 256) x63)) (not (bvugt x73 (bvadd x73 x240))) (= x212 (_ bv1000000000000000000 256)) (= (_ bv576 256) x257))) x241)))
(assert (= x8 (=> (and (or (and (and (bvuge x309 (_ bv32 256)) (bvuge (_ bv4294967295 256) x309) (= (_ bv1 256) x138)) x346) (and (= x340 x138) (not x346))) (and (= x282 (bvadd (_ bv32 256) x260)) (bvule (_ bv1 256) x55) (bvule x140 (_ bv4294967295 256)) (bvuge x262 (_ bv1 256)) x391 (= x198 (bvadd x30 (_ bv32 256))) (= (bvadd x282 (_ bv32 256)) x30) x413 (= x55 (x6 x148)) (bvuge x224 (_ bv1 256)) (bvule (_ bv32 256) x22) (= (= x123 (x308 x234)) x391) x233 (= x123 (x283 x234)) (= (bvadd (_ bv32 256) x20) x260) (= x346 (bvugt x340 (_ bv0 256))) (= (= (x143 x148) x69) x233) x373 (bvule (_ bv32 256) x309) (= x69 (x308 x148)) (= x51 x416) (bvule x148 (_ bv1461501637330902918203684832716283019655932542975 256)) (= (bvule x175 (x308 x352)) x413) (= (x6 x234) x262) (= x323 (x308 x352)) (= x27 (x6 x234)) (bvuge x231 (_ bv1 256)) (bvule x22 (_ bv4294967295 256)) (bvuge x27 (_ bv1 256)) (= (bvadd x312 (_ bv4 256)) x20) (not (= x47 x394)) (= x175 (x283 x352)) (= x373 (bvule x323 (x143 x352))))) x167)))
(assert (= (x331 (_ bv94660871419866510410585227081998418825812370529644017213781834938921611427840 256)) (_ bv0 256)))
(assert x3)
(assert (= (or x54 x256) x253))
(assert (x190 (_ bv1000000000000000 256)))
(assert (=> (bvuge (_ bv10000 256) x234) (= (x331 x234) (_ bv0 256))))
(assert (= (x96 (x49 (_ bv64 256) x394 (_ bv169 256))) (_ bv169 256)))
(assert (x190 (_ bv26959946667150639794667015087019630673637144422540572481103610249215 256)))
(assert (= (x331 (_ bv9926590759366731133184464140911154174177107315504433282334229972011911741440 256)) (_ bv0 256)))
(assert (x190 (_ bv94660871419866510410585227081998418825812370529644017213781834938921611427840 256)))
(assert (x190 (_ bv54839132643598794703230737955280539531164974940778555563538292604325798608896 256)))
(assert (= (x331 (x49 (_ bv64 256) x394 (_ bv169 256))) (x49 (_ bv64 256) x394 (_ bv169 256))))
(assert (= x228 (=> (and (and (= x11 (_ bv0 256)) (not (= x277 x106)) (bvule x145 (_ bv1461501637330902918203684832716283019655932542975 256)) (bvule x194 (_ bv1461501637330902918203684832716283019655932542975 256)) (not (= x106 x295)) (= (bvugt (x6 x295) (_ bv0 256)) x129) (not (= x363 x45)) (= x215 (bvult (_ bv0 256) (x6 x328))) (= x86 x106) (bvuge x305 (_ bv0 256)) (not (= x183 x295)) x381 (bvule (_ bv0 256) x195) (bvule (_ bv1 256) x172) (bvuge x295 (_ bv1 256)) (bvule x277 (_ bv1461501637330902918203684832716283019655932542975 256)) (= (bvult (_ bv0 256) (x6 x277)) x179) x50 x139 (= x221 (bvugt (x6 x45) (_ bv0 256))) (= x15 x5) (not (= x328 x363)) (not (= x45 x277)) (= x4 x110) (not (= x183 x363)) (not (= x295 x352)) (not (= x106 x363)) (bvule x295 (_ bv1461501637330902918203684832716283019655932542975 256)) (bvuge x128 (_ bv1 256)) (bvule x93 (_ bv57896044618658097711785492504343953926634992332820282019728792003956564819967 256)) (bvule x195 (_ bv115792089237316195423570985008687907853269984665640564039457584007913129639935 256)) (bvule x328 (_ bv1461501637330902918203684832716283019655932542975 256)) (bvuge (_ bv1461501637330902918203684832716283019655932542975 256) x421) (= (bvugt (x6 x183) (_ bv0 256)) x318) x122 x221 (bvuge (_ bv1461501637330902918203684832716283019655932542975 256) x172) (bvule (_ bv1 256) x145) (= x237 x381) (= x421 x328) (= x328 x145) (not (= x45 x24)) (bvuge x24 (_ bv1 256)) (bvuge x363 (_ bv1 256)) (= x50 x201) (bvule (_ bv1 256) x352) (bvule x245 (_ bv1461501637330902918203684832716283019655932542975 256)) (= (bvult (_ bv0 256) (x6 x106)) x304) (not (= x352 x277)) (not (= x328 x352)) (not (= x352 x183)) (= x268 x178) (not (= x295 x277)) (bvule (_ bv0 256) x364) (not (= x45 x295)) (= x38 (bvult (_ bv0 256) (x6 x24))) (= x197 (x379 (_ bv68 256))) (bvule (_ bv1 256) x183) (= x128 (x379 (_ bv36 256))) (not (= x363 x352)) (bvuge (_ bv1461501637330902918203684832716283019655932542975 256) x106) (not (= x183 x328)) (bvule x226 (_ bv115792089237316195423570985008687907853269984665640564039457584007913129639935 256)) x178 (= x141 x124) (bvule x281 (_ bv1461501637330902918203684832716283019655932542975 256)) x179 (not (= x328 x24)) (not (= x352 x45)) (not (= x24 x295)) (not (= x328 x45)) (bvule x86 (_ bv1461501637330902918203684832716283019655932542975 256)) x110 x81 x5 (bvuge (_ bv1461501637330902918203684832716283019655932542975 256) x352) (= x122 (bvult (_ bv0 256) (x6 x352))) (= x183 x172) (bvule (_ bv0 256) x409) (bvule (_ bv0 256) x238) (bvuge (_ bv1461501637330902918203684832716283019655932542975 256) x183) (not (= x24 x352)) (bvule (_ bv1 256) x86) (not (= x106 x352)) (bvule x238 (_ bv115792089237316195423570985008687907853269984665640564039457584007913129639935 256)) (bvuge x93 (_ bv100 256)) (bvule x45 (_ bv1461501637330902918203684832716283019655932542975 256)) (not (= x183 x106)) (not (= x277 x24)) (bvule x21 (_ bv4294967295 256)) (bvule x305 (_ bv115792089237316195423570985008687907853269984665640564039457584007913129639935 256)) (bvuge x410 (_ bv0 256)) (bvuge x405 (_ bv1 256)) (not (= x295 x363)) (not (= x24 x106)) (bvule (_ bv0 256) x245) (bvuge x281 (_ bv0 256)) x129 (bvuge x194 (_ bv0 256)) (= x45 x405) (not (= x363 x24)) (bvuge x45 (_ bv1 256)) (= x74 x128) (bvuge x328 (_ bv1 256)) (= x377 x139) (= x121 x85) x124 x215 (bvule x364 (_ bv115792089237316195423570985008687907853269984665640564039457584007913129639935 256)) (= (bvult (_ bv0 256) (x6 x363)) x81) (= (x379 (_ bv4 256)) x85) x304 (bvule (_ bv0 256) x21) (bvule x410 (_ bv1461501637330902918203684832716283019655932542975 256)) x318 (not (= x277 x183)) (bvule x363 (_ bv1461501637330902918203684832716283019655932542975 256)) (not (= x295 x328)) (bvuge (_ bv1461501637330902918203684832716283019655932542975 256) x24) (bvuge x226 (_ bv0 256)) (bvule (_ bv1 256) x421) (bvuge (_ bv1461501637330902918203684832716283019655932542975 256) x405) (not (= x277 x363)) (not (= x328 x277)) (not (= x183 x24)) (bvuge (_ bv115792089237316195423570985008687907853269984665640564039457584007913129639935 256) x409) (not (= x106 x328)) (not (= x183 x45)) (bvuge x277 (_ bv1 256)) (not (= x45 x106)) (bvuge x106 (_ bv1 256)) x38 (= x197 x397)) (and (and (= x364 x416) (and (= x290 (_ bv4125344866 256)) (bvule (_ bv1 256) x135) (= x74 x151) (= x394 (bvand x85 (_ bv1461501637330902918203684832716283019655932542975 256))) (= x410 x67) (= (= x416 x126) x184) (= (x83 x67) x211) (= x314 x17) (= x135 (x6 x352)) (= x234 (bvand x197 (_ bv1461501637330902918203684832716283019655932542975 256))) (not (= x243 (_ bv2 256))) (= x211 x236) (= (x387 x352) x17))) (= x47 x410))) (and (=> (and (not x184) (and (or (and (not x386) (= x417 x349)) (and (and (= x349 (_ bv1 256)) (bvule x36 (_ bv4294967295 256)) (bvuge x36 (_ bv32 256))) x386)) (and (bvule (_ bv1 256) x326) (= x35 (_ bv512 256)) (bvuge x306 (_ bv1 256)) (= x386 (bvugt x417 (_ bv0 256))) (bvuge x36 (_ bv32 256)) (= (x392 x61) x358) (= (_ bv50942633119752846454219349998365661925608737367104304655302372697894809501696 256) x182) (bvuge (_ bv1461501637330902918203684832716283019655932542975 256) x98) (= x66 (x105 (_ bv512 256))) (= (x6 x352) x326) (= x232 x352) (= x58 (_ bv512 256)) (= (_ bv1889567281 256) x57) (bvule (_ bv1 256) x422) (bvule x422 (_ bv1461501637330902918203684832716283019655932542975 256)) (= (x49 (_ bv64 256) x352 (_ bv103 256)) x61) (= x383 (x6 x422)) (bvule (_ bv1 256) x383) (= x352 x422) (= x306 (x6 x98)) (= (_ bv36 256) x293) (= x360 x232)))) x181) (=> (and x184 (and (= x51 x126) (= (_ bv128 256) x312) (= x296 x302))) x8)))))
(assert (x190 (_ bv4294967295 256)))
(assert (= (x286 (x49 (_ bv64 256) x352 (_ bv103 256))) x352))
(assert (= x181 (=> (and (or (and (and (= x424 x10) (= (bvmul x317 x300) x424) (x291 x317 x300)) (not x72)) (and x72 (= x10 (_ bv0 256)))) (and (= (x170 (_ bv512 256)) x317) (not (bvugt x126 x416)) (= x72 (= x317 (_ bv0 256))) (bvule (_ bv1 256) x349) (= (_ bv512 256) x419) (= x300 (bvadd (bvneg x126) x416)) (bvule x317 (_ bv1000000000000000 256)))) x153)))
(assert (=> (bvule x363 (_ bv10000 256)) (= (x331 x363) (_ bv0 256))))
(assert (x190 (_ bv1461501637330902918203684832716283019655932542975 256)))
(assert (= (_ bv0 256) (x331 (_ bv26959946667150639794667015087019630673637144422540572481103610249215 256))))
(assert (=> (bvule x45 (_ bv10000 256)) (= (_ bv0 256) (x331 x45))))
(assert (bvugt (x49 (_ bv64 256) x352 (_ bv103 256)) (_ bv10000 256)))
(assert (= x118 true))
(check-sat)
(exit)
